language ESSENCE' 1.0
letting lastdx=109
letting cage be [
[35,8,4,7,4,6,4,6,3,0,0],
[3,4,8,0,0, 0,0, 0,0, 0,0],
[7,1,14,0,0, 0,0, 0,0, 0,0],
[6,11,16,0,0, 0,0, 0,0, 0,0],
[8,16,8,0,0, 0,0, 0,0, 0,0],
[28,10,11,9,11,8,11,7,11,0,0],
[24,9,12,10,12,11,12,0,0, 0,0],
[35,6,2,5,2,5,1,4,1,0,0],
[15,5,13,0,0, 0,0, 0,0, 0,0],
[20,1,6,1,5,0,0, 0,0, 0,0],
[21,15,5,16,5,16,6,0,0, 0,0],
[28,8,1,7,1,6,1,7,2,0,0],
[7,14,15,0,0, 0,0, 0,0, 0,0],
[11,13,15,0,0, 0,0, 0,0, 0,0],
[22,7,3,8,3,8,2,0,0, 0,0],
[2,3,9,0,0, 0,0, 0,0, 0,0],
[4,2,16,0,0, 0,0, 0,0, 0,0],
[12,14,16,0,0, 0,0, 0,0, 0,0],
[3,14,12,0,0, 0,0, 0,0, 0,0],
[22,10,5,11,5,0,0, 0,0, 0,0],
[11,9,6,0,0, 0,0, 0,0, 0,0],
[29,2,12,2,11,2,10,3,10,0,0],
[16,16,13,0,0, 0,0, 0,0, 0,0],
[46,2,1,2,2,2,3,2,4,0,0],
[5,10,15,0,0, 0,0, 0,0, 0,0],
[16,6,14,7,14,0,0, 0,0, 0,0],
[48,9,3,9,4,10,4,10,3,10,2],
[6,5,14,0,0, 0,0, 0,0, 0,0],
[36,15,3,14,3,14,2,15,2,15,1],
[25,14,7,14,8,0,0, 0,0, 0,0],
[5,5,7,0,0, 0,0, 0,0, 0,0],
[15,14,6,0,0, 0,0, 0,0, 0,0],
[19,8,14,9,14,0,0, 0,0, 0,0],
[42,1,2,1,1,1,3,1,4,0,0],
[24,6,16,7,16,8,16,0,0, 0,0],
[8,15,15,0,0, 0,0, 0,0, 0,0],
[1,5,9,0,0, 0,0, 0,0, 0,0],
[24,8,9,8,8,0,0, 0,0, 0,0],
[35,13,6,12,6,11,6,11,7,0,0],
[4,11,3,0,0, 0,0, 0,0, 0,0],
[48,8,15,7,15,6,15,5,15,5,16],
[41,3,14,4,14,4,13,3,13,3,12],
[3,6,9,0,0, 0,0, 0,0, 0,0],
[11,13,12,13,11,0,0, 0,0, 0,0],
[23,5,4,5,3,0,0, 0,0, 0,0],
[6,3,1,0,0, 0,0, 0,0, 0,0],
[18,1,15,1,16,0,0, 0,0, 0,0],
[29,4,10,4,9,0,0, 0,0, 0,0],
[29,7,13,8,13,8,12,0,0, 0,0],
[11,7,10,0,0, 0,0, 0,0, 0,0],
[11,10,16,0,0, 0,0, 0,0, 0,0],
[18,16,16,15,16,0,0, 0,0, 0,0],
[42,11,1,10,1,9,1,9,2,0,0],
[4,4,6,0,0, 0,0, 0,0, 0,0],
[5,15,6,0,0, 0,0, 0,0, 0,0],
[27,16,2,16,1,16,3,0,0, 0,0],
[4,13,7,12,7,0,0, 0,0, 0,0],
[43,5,10,6,10,6,11,5,11,5,12],
[5,4,5,0,0, 0,0, 0,0, 0,0],
[5,13,16,0,0, 0,0, 0,0, 0,0],
[13,13,13,12,13,12,12,0,0, 0,0],
[8,2,14,0,0, 0,0, 0,0, 0,0],
[13,10,10,11,10,11,11,0,0, 0,0],
[39,6,13,6,12,7,12,0,0, 0,0],
[13,13,14,0,0, 0,0, 0,0, 0,0],
[39,11,4,12,4,12,3,12,2,11,2],
[1,6,6,0,0, 0,0, 0,0, 0,0],
[44,4,7,3,7,3,6,0,0, 0,0],
[12,12,5,0,0, 0,0, 0,0, 0,0],
[18,2,15,3,15,0,0, 0,0, 0,0],
[21,13,2,13,3,13,4,0,0, 0,0],
[6,4,15,0,0, 0,0, 0,0, 0,0],
[14,16,12,0,0, 0,0, 0,0, 0,0],
[22,5,8,6,8,6,7,0,0, 0,0],
[8,1,7,0,0, 0,0, 0,0, 0,0],
[23,1,8,2,8,3,8,0,0, 0,0],
[38,1,9,2,9,1,10,1,11,0,0],
[19,1,12,1,13,2,13,0,0, 0,0],
[20,2,5,3,5,0,0, 0,0, 0,0],
[9,2,6,2,7,0,0, 0,0, 0,0],
[12,3,2,0,0, 0,0, 0,0, 0,0],
[23,3,3,3,4,4,4,4,3,4,2],
[7,3,11,0,0, 0,0, 0,0, 0,0],
[24,3,16,4,16,0,0, 0,0, 0,0],
[22,4,11,4,12,0,0, 0,0, 0,0],
[40,5,5,5,6,6,5,7,5,7,6],
[9,7,7,0,0, 0,0, 0,0, 0,0],
[9,7,8,7,9,0,0, 0,0, 0,0],
[19,8,5,9,5,0,0, 0,0, 0,0],
[57,8,6,8,7,9,7,9,8,9,9],
[15,8,10,9,10,0,0, 0,0, 0,0],
[2,9,13,0,0, 0,0, 0,0, 0,0],
[25,9,15,9,16,0,0, 0,0, 0,0],
[2,10,6,0,0, 0,0, 0,0, 0,0],
[7,10,7,0,0, 0,0, 0,0, 0,0],
[27,10,8,10,9,0,0, 0,0, 0,0],
[3,10,13,0,0, 0,0, 0,0, 0,0],
[26,10,14,11,14,11,13,0,0, 0,0],
[35,11,15,12,15,12,14,12,16,0,0],
[33,12,1,13,1,14,1,0,0, 0,0],
[16,13,5,0,0, 0,0, 0,0, 0,0],
[5,14,4,14,5,0,0, 0,0, 0,0],
[2,14,10,0,0, 0,0, 0,0, 0,0],
[5,14,11,0,0, 0,0, 0,0, 0,0],
[31,14,13,15,13,15,14,14,14,0,0],
[18,15,4,16,4,0,0, 0,0, 0,0],
[25,15,11,15,12,0,0, 0,0, 0,0],
[6,16,9,0,0, 0,0, 0,0, 0,0],
[18,16,10,16,11,0,0, 0,0, 0,0],
[11,16,14,16,15,0,0, 0,0, 0,0]
]
